(set-logic HORN)
; KVARS

(declare-fun k_99 (Int Int Int Int Int Int Int Int) Bool)

(declare-fun k_97 (Int Int Int Int Int Int Int Int Int) Bool)

(declare-fun k_593 (Int Int Int Int Int Int Int) Bool)

(declare-fun k_591 (Int Int Int Int Int Int Int Int Int Int Int Int Int Int Int Int) Bool)

(declare-fun k_585 (Int Int Int Int Int Int Int Int Int Int Int Int Int Int Int Int Int Int) Bool)

(declare-fun k_582 (Int Int Int Int Int Int Int Int Int Int Int Int Int Int Int Int Int) Bool)

(declare-fun k_580 (Int Int Int Int Int Int Int Int Int Int Int Int Int Int Int Int Int Int) Bool)

(declare-fun k_578 (Int Int Int Int Int Int Int Int Int Int Int Int Int Int Int Int Int) Bool)

(declare-fun k_574 (Int Int Int Int Int Int Int Int Int Int Int Int Int Int Int Int) Bool)

(declare-fun k_570 (Int Int Int Int Int Int Int Int Int Int Int Int Int Int) Bool)

(declare-fun k_566 (Int Int Int Int Int Int Int Int Int Int Int Int Int Int Int) Bool)

(declare-fun k_563 (Int Int Int Int Int Int Int Int Int Int Int Int Int Int) Bool)

(declare-fun k_560 (Int Int Int Int Int Int Int Int Int Int Int Int Int) Bool)

(declare-fun k_558 (Int Int Int Int Int Int Int Int Int Int Int Int Int Int) Bool)

(declare-fun k_553 (Int Int Int Int Int Int Int Int Int Int Int) Bool)

(declare-fun k_550 (Int Int Int Int Int Int Int Int Int Int) Bool)

(declare-fun k_547 (Int Int Int Int Int Int Int Int Int) Bool)

(declare-fun k_545 (Int Int Int Int Int Int Int Int Int) Bool)

(declare-fun k_542 (Int Int Int Int Int Int Int Int) Bool)

(declare-fun k_540 (Int Int Int Int Int Int Int Int Int) Bool)

(declare-fun k_537 (Int Int Int Int Int Int Int) Bool)

(declare-fun k_535 (Int Int Int Int Int Int Int Int) Bool)

(declare-fun k_531 (Int Int Int Int Int Int Int Int Int Int) Bool)

(declare-fun k_529 (Int Int Int Int Int Int Int Int Int Int Int Int Int Int Int Int Int Int Int Int) Bool)

(declare-fun k_522 (Int Int Int Int Int Int Int Int Int Int Int Int Int Int Int Int Int) Bool)

(declare-fun k_520 (Int Int Int Int Int Int Int Int Int Int Int Int Int Int Int Int Int Int) Bool)

(declare-fun k_515 (Int Int Int Int Int Int Int Int Int Int Int Int Int Int Int) Bool)

(declare-fun k_513 (Int Int Int Int Int Int Int Int Int Int Int Int Int Int Int) Bool)

(declare-fun k_510 (Int Int Int Int Int Int Int Int Int Int Int Int Int Int) Bool)

(declare-fun k_507 (Int Int Int Int Int Int Int Int Int Int Int Int Int) Bool)

(declare-fun k_504 (Int Int Int Int Int Int Int Int Int Int Int Int Int Int Int) Bool)

(declare-fun k_502 (Int Int Int Int Int Int Int Int Int Int Int Int Int Int) Bool)

(declare-fun k_499 (Int Int Int Int Int Int Int Int Int Int Int Int Int) Bool)

(declare-fun k_495 (Int Int Int Int Int Int Int Int Int Int Int Int) Bool)

(declare-fun k_492 (Int Int Int Int Int Int Int Int Int Int Int) Bool)

(declare-fun k_489 (Int Int Int Int Int Int Int Int Int Int) Bool)

(declare-fun k_485 (Int Int Int Int Int Int Int Int Int Int Int Int) Bool)

(declare-fun k_483 (Int Int Int Int Int Int Int Int Int Int Int) Bool)

(declare-fun k_480 (Int Int Int Int Int Int Int Int Int Int) Bool)

(declare-fun k_477 (Int Int Int Int Int Int Int Int Int Int Int Int Int Int Int) Bool)

(declare-fun k_475 (Int Int Int Int Int Int Int Int Int Int Int Int Int Int) Bool)

(declare-fun k_473 (Int Int Int Int Int Int Int Int Int Int Int Int Int) Bool)

(declare-fun k_471 (Int Int Int Int Int Int Int Int Int Int Int Int Int Int Int) Bool)

(declare-fun k_469 (Int Int Int Int Int Int Int Int Int Int Int Int Int Int) Bool)

(declare-fun k_466 (Int Int Int Int Int Int Int Int Int Int Int Int Int) Bool)

(declare-fun k_463 (Int Int Int Int Int Int Int Int Int Int Int Int) Bool)

(declare-fun k_461 (Int Int Int Int Int Int Int Int Int Int Int) Bool)

(declare-fun k_459 (Int Int Int Int Int Int Int Int Int Int) Bool)

(declare-fun k_457 (Int Int Int Int Int Int Int Int Int Int) Bool)

(declare-fun k_454 (Int Int Int Int Int Int Int Int Int Int Int Int) Bool)

(declare-fun k_452 (Int Int Int Int Int Int Int Int Int Int Int) Bool)

(declare-fun k_449 (Int Int Int Int Int Int Int Int Int Int) Bool)

(declare-fun k_445 (Int Int Int Int Int Int Int Int Int) Bool)

(declare-fun k_442 (Int Int Int Int Int Int Int Int) Bool)

(declare-fun k_439 (Int Int Int Int Int Int Int) Bool)

(declare-fun k_431 (Int Int Int Int Int Int Int Int Int Int) Bool)

(declare-fun k_422 (Int Int Int Int Int Int Int Int Int Int Int Int Int Int) Bool)

(declare-fun k_418 (Int Int Int Int Int Int Int Int Int Int Int Int Int Int) Bool)

(declare-fun k_416 (Int Int Int Int Int Int Int Int Int Int Int Int Int Int Int) Bool)

(declare-fun k_411 (Int Int Int Int Int Int Int Int Int Int Int Int) Bool)

(declare-fun k_406 (Int Int Int Int Int Int Int Int Int Int) Bool)

(declare-fun k_404 (Int Int Int Int Int Int Int Int Int Int Int Int) Bool)

(declare-fun k_402 (Int Int Int Int Int Int Int Int Int Int Int) Bool)

(declare-fun k_399 (Int Int Int Int Int Int Int Int Int Int) Bool)

(declare-fun k_395 (Int Int Int Int Int Int Int Int Int) Bool)

(declare-fun k_393 (Int Int Int Int Int Int Int Int Int Int) Bool)

(declare-fun k_389 (Int Int Int Int Int Int Int Int Int Int Int) Bool)

(declare-fun k_387 (Int Int Int Int Int Int Int Int Int Int) Bool)

(declare-fun k_384 (Int Int Int Int Int Int Int Int Int) Bool)

(declare-fun k_381 (Int Int Int Int Int Int Int Int Int Int Int Int) Bool)

(declare-fun k_379 (Int Int Int Int Int Int Int Int Int Int Int) Bool)

(declare-fun k_377 (Int Int Int Int Int Int Int Int Int Int) Bool)

(declare-fun k_375 (Int Int Int Int Int Int Int Int Int) Bool)

(declare-fun k_373 (Int Int Int Int Int Int Int Int Int Int) Bool)

(declare-fun k_370 (Int Int Int Int Int Int Int Int) Bool)

(declare-fun k_368 (Int Int Int Int Int Int Int Int) Bool)

(declare-fun k_365 (Int Int Int Int Int Int Int) Bool)

(declare-fun k_363 (Int Int Int Int Int Int Int Int) Bool)

(declare-fun k_360 (Int Int Int Int Int Int Int Int Int Int Int Int Int Int Int Int) Bool)

(declare-fun k_357 (Int Int Int Int Int Int Int Int Int Int Int Int Int Int Int) Bool)

(declare-fun k_354 (Int Int Int Int Int Int Int Int Int Int Int Int Int Int Int Int) Bool)

(declare-fun k_351 (Int Int Int Int Int Int Int Int Int Int Int Int Int Int Int) Bool)

(declare-fun k_349 (Int Int Int Int Int Int Int Int Int Int Int Int Int Int Int Int) Bool)

(declare-fun k_343 (Int Int Int Int Int Int Int Int Int Int Int Int) Bool)

(declare-fun k_340 (Int Int Int Int Int Int Int Int Int Int Int) Bool)

(declare-fun k_337 (Int Int Int Int Int Int Int Int Int Int) Bool)

(declare-fun k_334 (Int Int Int Int Int Int Int Int Int) Bool)

(declare-fun k_332 (Int Int Int Int Int Int Int Int Int Int) Bool)

(declare-fun k_329 (Int Int Int Int Int Int Int Int) Bool)

(declare-fun k_326 (Int Int Int Int Int Int Int) Bool)

(declare-fun k_324 (Int Int Int Int Int Int Int Int) Bool)

(declare-fun k_322 (Int Int Int Int Int Int Int Int Int) Bool)

(declare-fun k_319 (Int Int Int Int Int Int Int Int) Bool)

(declare-fun k_316 (Int Int Int Int Int Int Int) Bool)

(declare-fun k_314 (Int Int Int Int Int Int Int Int) Bool)

(declare-fun k_312 (Int Int Int Int Int Int Int Int Int) Bool)

(declare-fun k_309 (Int Int Int Int Int Int Int Int) Bool)

(declare-fun k_306 (Int Int Int Int Int Int Int) Bool)

(declare-fun k_304 (Int Int Int Int Int Int Int Int) Bool)

(declare-fun k_295 (Int Int Int Int Int Int Int Int Int Int Int) Bool)

(declare-fun k_291 (Int Int Int Int Int Int Int Int Int) Bool)

(declare-fun k_288 (Int Int Int Int Int Int Int Int) Bool)

(declare-fun k_281 (Int Int Int Int Int Int Int Int Int) Bool)

(declare-fun k_278 (Int Int Int Int Int Int Int Int) Bool)

(declare-fun k_269 (Int Int Int Int Int Int Int Int Int Int Int Int Int Int Int Int Int Int Int Int) Bool)

(declare-fun k_258 (Int Int Int Int Int Int Int Int Int Int Int Int Int Int) Bool)

(declare-fun k_255 (Int Int Int Int Int Int Int Int Int Int Int Int Int) Bool)

(declare-fun k_252 (Int Int Int Int Int Int Int Int Int Int Int Int Int Int) Bool)

(declare-fun k_249 (Int Int Int Int Int Int Int Int Int Int Int Int Int Int) Bool)

(declare-fun k_247 (Int Int Int Int Int Int Int Int Int Int Int Int Int Int Int) Bool)

(declare-fun k_245 (Int Int Int Int Int Int Int Int Int Int Int Int Int Int Int) Bool)

(declare-fun k_243 (Int Int Int Int Int Int Int Int Int Int Int Int Int Int) Bool)

(declare-fun k_240 (Int Int Int Int Int Int Int Int Int Int Int Int Int Int Int) Bool)

(declare-fun k_238 (Int Int Int Int Int Int Int Int Int Int Int Int Int Int Int) Bool)

(declare-fun k_236 (Int Int Int Int Int Int Int Int Int Int Int Int Int Int Int) Bool)

(declare-fun k_233 (Int Int Int Int Int Int Int Int Int Int Int Int) Bool)

(declare-fun k_230 (Int Int Int Int Int Int Int Int Int Int Int) Bool)

(declare-fun k_227 (Int Int Int Int Int Int Int Int Int Int Int Int) Bool)

(declare-fun k_224 (Int Int Int Int Int Int Int Int Int Int Int Int) Bool)

(declare-fun k_222 (Int Int Int Int Int Int Int Int Int Int Int Int Int) Bool)

(declare-fun k_220 (Int Int Int Int Int Int Int Int Int Int Int Int Int) Bool)

(declare-fun k_218 (Int Int Int Int Int Int Int Int Int Int Int Int) Bool)

(declare-fun k_215 (Int Int Int Int Int Int Int Int Int Int Int Int Int) Bool)

(declare-fun k_213 (Int Int Int Int Int Int Int Int Int Int Int Int Int) Bool)

(declare-fun k_211 (Int Int Int Int Int Int Int Int Int Int Int Int Int) Bool)

(declare-fun k_208 (Int Int Int Int Int Int Int Int Int Int) Bool)

(declare-fun k_206 (Int Int Int Int Int Int Int Int Int Int Int) Bool)

(declare-fun k_201 (Int Int Int Int Int Int Int Int Int Int Int Int) Bool)

(declare-fun k_199 (Int Int Int Int Int Int Int Int Int Int Int) Bool)

(declare-fun k_196 (Int Int Int Int Int Int Int Int Int Int Int Int) Bool)

(declare-fun k_193 (Int Int Int Int Int Int Int Int Int Int Int Int) Bool)

(declare-fun k_191 (Int Int Int Int Int Int Int Int Int Int Int Int Int) Bool)

(declare-fun k_189 (Int Int Int Int Int Int Int Int Int Int Int Int Int) Bool)

(declare-fun k_187 (Int Int Int Int Int Int Int Int Int Int Int Int) Bool)

(declare-fun k_184 (Int Int Int Int Int Int Int Int Int Int Int Int Int) Bool)

(declare-fun k_182 (Int Int Int Int Int Int Int Int Int Int Int Int Int) Bool)

(declare-fun k_180 (Int Int Int Int Int Int Int Int Int Int Int Int Int) Bool)

(declare-fun k_177 (Int Int Int Int Int Int Int Int Int Int) Bool)

(declare-fun k_174 (Int Int Int Int Int Int Int Int Int Int Int Int Int Int) Bool)

(declare-fun k_172 (Int Int Int Int Int Int Int Int Int Int Int Int Int) Bool)

(declare-fun k_169 (Int Int Int Int Int Int Int Int Int Int Int Int Int Int) Bool)

(declare-fun k_166 (Int Int Int Int Int Int Int Int Int Int Int Int Int Int) Bool)

(declare-fun k_164 (Int Int Int Int Int Int Int Int Int Int Int Int Int Int Int) Bool)

(declare-fun k_162 (Int Int Int Int Int Int Int Int Int Int Int Int Int Int Int) Bool)

(declare-fun k_160 (Int Int Int Int Int Int Int Int Int Int Int Int Int Int) Bool)

(declare-fun k_157 (Int Int Int Int Int Int Int Int Int Int Int Int Int Int Int) Bool)

(declare-fun k_155 (Int Int Int Int Int Int Int Int Int Int Int Int Int Int Int) Bool)

(declare-fun k_153 (Int Int Int Int Int Int Int Int Int Int Int Int Int Int Int) Bool)

(declare-fun k_151 (Int Int Int Int Int Int Int Int Int Int Int Int) Bool)

(declare-fun k_149 (Int Int Int Int Int Int Int Int Int Int Int) Bool)

(declare-fun k_146 (Int Int Int Int Int Int Int Int Int Int Int Int) Bool)

(declare-fun k_143 (Int Int Int Int Int Int Int Int Int Int Int Int) Bool)

(declare-fun k_141 (Int Int Int Int Int Int Int Int Int Int Int Int Int) Bool)

(declare-fun k_139 (Int Int Int Int Int Int Int Int Int Int Int Int Int) Bool)

(declare-fun k_137 (Int Int Int Int Int Int Int Int Int Int Int Int) Bool)

(declare-fun k_134 (Int Int Int Int Int Int Int Int Int Int Int Int Int) Bool)

(declare-fun k_132 (Int Int Int Int Int Int Int Int Int Int Int Int Int) Bool)

(declare-fun k_130 (Int Int Int Int Int Int Int Int Int Int Int Int Int) Bool)

(declare-fun k_128 (Int Int Int Int Int Int Int Int Int Int) Bool)

(declare-fun k_126 (Int Int Int Int Int Int Int Int Int Int Int) Bool)

(declare-fun k_124 (Int Int Int Int Int Int Int Int Int Int) Bool)

(declare-fun k_121 (Int Int Int Int Int Int Int Int Int) Bool)

(declare-fun k_118 (Int Int Int Int Int Int Int Int Int Int) Bool)

(declare-fun k_115 (Int Int Int Int Int Int Int Int Int Int) Bool)

(declare-fun k_113 (Int Int Int Int Int Int Int Int Int Int Int) Bool)

(declare-fun k_111 (Int Int Int Int Int Int Int Int Int Int Int) Bool)

(declare-fun k_109 (Int Int Int Int Int Int Int Int Int Int) Bool)

(declare-fun k_106 (Int Int Int Int Int Int Int Int Int Int Int) Bool)

(declare-fun k_104 (Int Int Int Int Int Int Int Int Int Int Int) Bool)

(declare-fun k_102 (Int Int Int Int Int Int Int Int Int Int Int) Bool)

; CONSTRAINTS

; cid = 124
(assert (forall ((EQ_6U Int) 
(False_68 Int) (GT_6W Int) (LT_6S Int) (Prop (Array Int Bool)) (True_6u Int) 
(VV_F124 Int) (a_a11j Int) (cmp (Array Int Int)) (lq_anf__d12K Int) 
(lq_anf__d12L Int) (lq_anf__d12M Int) (lq_anf__d12N Int) (lq_anf__d12O Int) 
(lq_anf__d12P Int) (n_aZV Int) 
(realWorld__0f Int)) 
 (=> (and (k_288 EQ_6U False_68 GT_6W LT_6S True_6u n_aZV a_a11j realWorld__0f) (and (= (select cmp EQ_6U) EQ_6U) (and (not (select Prop False_68)) (and (= (select cmp GT_6W) GT_6W) (and (= (select cmp LT_6S) LT_6S) (and (select Prop True_6u) (and (= lq_anf__d12K 0) (and (= lq_anf__d12L lq_anf__d12K) (and (= (select Prop lq_anf__d12M) (<= lq_anf__d12L n_aZV)) (and (= (select Prop lq_anf__d12N) (<= lq_anf__d12L n_aZV)) (and (= lq_anf__d12N lq_anf__d12M) (and (not (select Prop lq_anf__d12N)) (and (not (select Prop lq_anf__d12N)) (and (= lq_anf__d12O 0) (and (= lq_anf__d12P lq_anf__d12O) (and (= VV_F124 (- lq_anf__d12P n_aZV)) true)))))))))))))))) (k_291 EQ_6U False_68 GT_6W LT_6S True_6u VV_F124 a_a11j n_aZV realWorld__0f)))
)


; cid = 123
(assert (forall ((EQ_6U Int) (False_68 Int) (GT_6W Int) 
(LT_6S Int) (Prop (Array Int Bool)) (True_6u Int) (VV_F123 Int) (a_a11j Int) 
(cmp (Array Int Int)) (lq_anf__d12K Int) (lq_anf__d12L Int) 
(lq_anf__d12M Int) (lq_anf__d12N Int) (n_aZV Int) 
(realWorld__0f Int)) 
 (=> (and (k_288 EQ_6U False_68 GT_6W LT_6S True_6u n_aZV a_a11j realWorld__0f) (and (= (select cmp EQ_6U) EQ_6U) (and (not (select Prop False_68)) (and (= (select cmp GT_6W) GT_6W) (and (= (select cmp LT_6S) LT_6S) (and (select Prop True_6u) (and (= lq_anf__d12K 0) (and (= lq_anf__d12L lq_anf__d12K) (and (= (select Prop lq_anf__d12M) (<= lq_anf__d12L n_aZV)) (and (= (select Prop lq_anf__d12N) (<= lq_anf__d12L n_aZV)) (and (= lq_anf__d12N lq_anf__d12M) (and (select Prop lq_anf__d12N) (and (select Prop lq_anf__d12N) (and (k_288 EQ_6U False_68 GT_6W LT_6S True_6u VV_F123 a_a11j realWorld__0f) (and (= VV_F123 n_aZV) true))))))))))))))) (k_291 EQ_6U False_68 GT_6W LT_6S True_6u VV_F123 a_a11j n_aZV realWorld__0f)))
)


; cid = 91
(assert (forall ((EQ_6U Int) (False_68 Int) (GT_6W Int) 
(LT_6S Int) (Prop (Array Int Bool)) (True_6u Int) (VV_818 Int) (VV_F91 Int) 
(acc_aZT Int) (cmp (Array Int Int)) (i_aZU Int) (lq_anf__d12X Int) 
(lq_anf__d12Y Int) (n_aZS Int) (realWorld__0f Int) (vec_X4 Int) 
(vec_aZQ Int) 
(vlen (Array Int Int))) 
 (=> (and (k_395 EQ_6U False_68 GT_6W LT_6S True_6u VV_818 n_aZS realWorld__0f vec_aZQ) (and (k_399 EQ_6U False_68 GT_6W LT_6S True_6u acc_aZT n_aZS realWorld__0f vec_X4 vec_aZQ) (and (k_402 EQ_6U False_68 GT_6W LT_6S True_6u i_aZU acc_aZT n_aZS realWorld__0f vec_X4 vec_aZQ) (and (k_395 EQ_6U False_68 GT_6W LT_6S True_6u vec_X4 n_aZS realWorld__0f vec_aZQ) (and (k_365 EQ_6U False_68 GT_6W LT_6S True_6u vec_aZQ realWorld__0f) (and (= (select cmp EQ_6U) EQ_6U) (and (not (select Prop False_68)) (and (= (select cmp GT_6W) GT_6W) (and (= (select cmp LT_6S) LT_6S) (and (select Prop True_6u) (and (>= (select vlen VV_818) 0) (and (= VV_818 vec_X4) (and (>= (select vlen VV_818) 0) (and (= (select Prop lq_anf__d12X) (not (= i_aZU n_aZS))) (and (= (select Prop lq_anf__d12Y) (not (= i_aZU n_aZS))) (and (= lq_anf__d12Y lq_anf__d12X) (and (select Prop lq_anf__d12Y) (and (select Prop lq_anf__d12Y) (and (>= n_aZS 0) (and (= n_aZS (select vlen vec_X4)) (and (>= (select vlen vec_X4) 0) (and (>= (select vlen vec_aZQ) 0) (and (k_393 EQ_6U False_68 GT_6W LT_6S True_6u VV_F91 VV_818 n_aZS realWorld__0f vec_aZQ) true))))))))))))))))))))))) (k_422 EQ_6U False_68 GT_6W LT_6S True_6u VV_F91 acc_aZT i_aZU lq_anf__d12X lq_anf__d12Y n_aZS realWorld__0f vec_X4 vec_aZQ)))
)


; cid = 90
(assert (forall ((EQ_6U Int) (False_68 Int) (GT_6W Int) 
(LT_6S Int) (Prop (Array Int Bool)) (True_6u Int) (VV_F90 Int) (acc_aZT Int) 
(cmp (Array Int Int)) (i_aZU Int) (lq_anf__d12X Int) (lq_anf__d12Y Int) 
(n_aZS Int) (realWorld__0f Int) (vec_X4 Int) (vec_aZQ Int) 
(vlen (Array Int Int))) 
 (=> (and (not (and (<= 0 VV_F90) (and (< VV_F90 (select vlen vec_X4)) true))) (and (k_399 EQ_6U False_68 GT_6W LT_6S True_6u acc_aZT n_aZS realWorld__0f vec_X4 vec_aZQ) (and (k_402 EQ_6U False_68 GT_6W LT_6S True_6u i_aZU acc_aZT n_aZS realWorld__0f vec_X4 vec_aZQ) (and (k_395 EQ_6U False_68 GT_6W LT_6S True_6u vec_X4 n_aZS realWorld__0f vec_aZQ) (and (k_365 EQ_6U False_68 GT_6W LT_6S True_6u vec_aZQ realWorld__0f) (and (= (select cmp EQ_6U) EQ_6U) (and (not (select Prop False_68)) (and (= (select cmp GT_6W) GT_6W) (and (= (select cmp LT_6S) LT_6S) (and (select Prop True_6u) (and (= (select Prop lq_anf__d12X) (not (= i_aZU n_aZS))) (and (= (select Prop lq_anf__d12Y) (not (= i_aZU n_aZS))) (and (= lq_anf__d12Y lq_anf__d12X) (and (select Prop lq_anf__d12Y) (and (select Prop lq_anf__d12Y) (and (>= n_aZS 0) (and (= n_aZS (select vlen vec_X4)) (and (>= (select vlen vec_X4) 0) (and (>= (select vlen vec_aZQ) 0) (and (k_402 EQ_6U False_68 GT_6W LT_6S True_6u VV_F90 acc_aZT n_aZS realWorld__0f vec_X4 vec_aZQ) (and (= VV_F90 i_aZU) true))))))))))))))))))))) false))
)


; cid = 89
(assert (forall ((EQ_6U Int) (False_68 Int) (GT_6W Int) 
(LT_6S Int) (Prop (Array Int Bool)) (True_6u Int) (VV_F89 Int) (a_a11j Int) 
(acc_aZT Int) (cmp (Array Int Int)) (i_aZU Int) (lq_anf__d12X Int) 
(lq_anf__d12Y Int) (lq_anf__d12Z Int) (n_aZS Int) (realWorld__0f Int) 
(vec_X4 Int) (vec_aZQ Int) 
(vlen (Array Int Int))) 
 (=> (and (k_399 EQ_6U False_68 GT_6W LT_6S True_6u acc_aZT n_aZS realWorld__0f vec_X4 vec_aZQ) (and (k_402 EQ_6U False_68 GT_6W LT_6S True_6u i_aZU acc_aZT n_aZS realWorld__0f vec_X4 vec_aZQ) (and (k_422 EQ_6U False_68 GT_6W LT_6S True_6u lq_anf__d12Z acc_aZT i_aZU lq_anf__d12X lq_anf__d12Y n_aZS realWorld__0f vec_X4 vec_aZQ) (and (k_395 EQ_6U False_68 GT_6W LT_6S True_6u vec_X4 n_aZS realWorld__0f vec_aZQ) (and (k_365 EQ_6U False_68 GT_6W LT_6S True_6u vec_aZQ realWorld__0f) (and (= (select cmp EQ_6U) EQ_6U) (and (not (select Prop False_68)) (and (= (select cmp GT_6W) GT_6W) (and (= (select cmp LT_6S) LT_6S) (and (select Prop True_6u) (and (= (select Prop lq_anf__d12X) (not (= i_aZU n_aZS))) (and (= (select Prop lq_anf__d12Y) (not (= i_aZU n_aZS))) (and (= lq_anf__d12Y lq_anf__d12X) (and (select Prop lq_anf__d12Y) (and (select Prop lq_anf__d12Y) (and (>= n_aZS 0) (and (= n_aZS (select vlen vec_X4)) (and (>= (select vlen vec_X4) 0) (and (>= (select vlen vec_aZQ) 0) (and (k_422 EQ_6U False_68 GT_6W LT_6S True_6u VV_F89 acc_aZT i_aZU lq_anf__d12X lq_anf__d12Y n_aZS realWorld__0f vec_X4 vec_aZQ) (and (= VV_F89 lq_anf__d12Z) true))))))))))))))))))))) (k_288 EQ_6U False_68 GT_6W LT_6S True_6u VV_F89 a_a11j realWorld__0f)))
)


; cid = 88
(assert (forall ((EQ_6U Int) (False_68 Int) (GT_6W Int) 
(LT_6S Int) (Prop (Array Int Bool)) (True_6u Int) (VV_800 Int) (VV_F88 Int) 
(a_a11j Int) (acc_aZT Int) (cmp (Array Int Int)) (i_aZU Int) 
(lq_anf__d12X Int) (lq_anf__d12Y Int) (lq_anf__d12Z Int) (lq_anf__d130 Int) 
(lq_anf__d131 Int) (lq_anf__d132 Int) (lq_anf__d133 Int) (n_aZS Int) 
(realWorld__0f Int) (vec_X4 Int) (vec_aZQ Int) 
(vlen (Array Int Int))) 
 (=> (and (k_395 EQ_6U False_68 GT_6W LT_6S True_6u VV_800 n_aZS realWorld__0f vec_aZQ) (and (k_399 EQ_6U False_68 GT_6W LT_6S True_6u acc_aZT n_aZS realWorld__0f vec_X4 vec_aZQ) (and (k_402 EQ_6U False_68 GT_6W LT_6S True_6u i_aZU acc_aZT n_aZS realWorld__0f vec_X4 vec_aZQ) (and (k_422 EQ_6U False_68 GT_6W LT_6S True_6u lq_anf__d12Z acc_aZT i_aZU lq_anf__d12X lq_anf__d12Y n_aZS realWorld__0f vec_X4 vec_aZQ) (and (k_291 EQ_6U False_68 GT_6W LT_6S True_6u lq_anf__d130 a_a11j lq_anf__d12Z realWorld__0f) (and (k_395 EQ_6U False_68 GT_6W LT_6S True_6u vec_X4 n_aZS realWorld__0f vec_aZQ) (and (k_365 EQ_6U False_68 GT_6W LT_6S True_6u vec_aZQ realWorld__0f) (and (= (select cmp EQ_6U) EQ_6U) (and (not (select Prop False_68)) (and (= (select cmp GT_6W) GT_6W) (and (= (select cmp LT_6S) LT_6S) (and (select Prop True_6u) (and (>= (select vlen VV_800) 0) (and (= VV_800 vec_X4) (and (>= (select vlen VV_800) 0) (and (= (select Prop lq_anf__d12X) (not (= i_aZU n_aZS))) (and (= (select Prop lq_anf__d12Y) (not (= i_aZU n_aZS))) (and (= lq_anf__d12Y lq_anf__d12X) (and (select Prop lq_anf__d12Y) (and (select Prop lq_anf__d12Y) (and (= lq_anf__d131 (+ acc_aZT lq_anf__d130)) (and (= lq_anf__d132 1) (and (= lq_anf__d133 (+ i_aZU lq_anf__d132)) (and (>= n_aZS 0) (and (= n_aZS (select vlen vec_X4)) (and (>= (select vlen vec_X4) 0) (and (>= (select vlen vec_aZQ) 0) (and (k_393 EQ_6U False_68 GT_6W LT_6S True_6u VV_F88 VV_800 n_aZS realWorld__0f vec_aZQ) true)))))))))))))))))))))))))))) (k_373 EQ_6U False_68 GT_6W LT_6S True_6u VV_F88 VV_800 n_aZS realWorld__0f vec_aZQ)))
)


; cid = 87
(assert (forall ((EQ_6U Int) (False_68 Int) (GT_6W Int) 
(LT_6S Int) (Prop (Array Int Bool)) (True_6u Int) (VV_F87 Int) (a_a11j Int) 
(acc_aZT Int) (cmp (Array Int Int)) (i_aZU Int) (lq_anf__d12X Int) 
(lq_anf__d12Y Int) (lq_anf__d12Z Int) (lq_anf__d130 Int) (lq_anf__d131 Int) 
(lq_anf__d132 Int) (lq_anf__d133 Int) (n_aZS Int) (realWorld__0f Int) 
(vec_X4 Int) (vec_aZQ Int) 
(vlen (Array Int Int))) 
 (=> (and (k_399 EQ_6U False_68 GT_6W LT_6S True_6u acc_aZT n_aZS realWorld__0f vec_X4 vec_aZQ) (and (k_402 EQ_6U False_68 GT_6W LT_6S True_6u i_aZU acc_aZT n_aZS realWorld__0f vec_X4 vec_aZQ) (and (k_422 EQ_6U False_68 GT_6W LT_6S True_6u lq_anf__d12Z acc_aZT i_aZU lq_anf__d12X lq_anf__d12Y n_aZS realWorld__0f vec_X4 vec_aZQ) (and (k_291 EQ_6U False_68 GT_6W LT_6S True_6u lq_anf__d130 a_a11j lq_anf__d12Z realWorld__0f) (and (k_395 EQ_6U False_68 GT_6W LT_6S True_6u vec_X4 n_aZS realWorld__0f vec_aZQ) (and (k_365 EQ_6U False_68 GT_6W LT_6S True_6u vec_aZQ realWorld__0f) (and (= (select cmp EQ_6U) EQ_6U) (and (not (select Prop False_68)) (and (= (select cmp GT_6W) GT_6W) (and (= (select cmp LT_6S) LT_6S) (and (select Prop True_6u) (and (= (select Prop lq_anf__d12X) (not (= i_aZU n_aZS))) (and (= (select Prop lq_anf__d12Y) (not (= i_aZU n_aZS))) (and (= lq_anf__d12Y lq_anf__d12X) (and (select Prop lq_anf__d12Y) (and (select Prop lq_anf__d12Y) (and (= lq_anf__d131 (+ acc_aZT lq_anf__d130)) (and (= lq_anf__d132 1) (and (= lq_anf__d133 (+ i_aZU lq_anf__d132)) (and (>= n_aZS 0) (and (= n_aZS (select vlen vec_X4)) (and (>= (select vlen vec_X4) 0) (and (>= (select vlen vec_aZQ) 0) (and (k_395 EQ_6U False_68 GT_6W LT_6S True_6u VV_F87 n_aZS realWorld__0f vec_aZQ) (and (>= (select vlen VV_F87) 0) (and (= VV_F87 vec_X4) true)))))))))))))))))))))))))) (k_375 EQ_6U False_68 GT_6W LT_6S True_6u VV_F87 n_aZS realWorld__0f vec_aZQ)))
)


; cid = 86
(assert (forall ((EQ_6U Int) (False_68 Int) (GT_6W Int) 
(LT_6S Int) (Prop (Array Int Bool)) (True_6u Int) (VV_F86 Int) (a_a11j Int) 
(acc_aZT Int) (cmp (Array Int Int)) (i_aZU Int) (lq_anf__d12X Int) 
(lq_anf__d12Y Int) (lq_anf__d12Z Int) (lq_anf__d130 Int) (lq_anf__d131 Int) 
(lq_anf__d132 Int) (lq_anf__d133 Int) (n_aZS Int) (realWorld__0f Int) 
(vec_X4 Int) (vec_aZQ Int) 
(vlen (Array Int Int))) 
 (=> (and (k_399 EQ_6U False_68 GT_6W LT_6S True_6u acc_aZT n_aZS realWorld__0f vec_X4 vec_aZQ) (and (k_402 EQ_6U False_68 GT_6W LT_6S True_6u i_aZU acc_aZT n_aZS realWorld__0f vec_X4 vec_aZQ) (and (k_422 EQ_6U False_68 GT_6W LT_6S True_6u lq_anf__d12Z acc_aZT i_aZU lq_anf__d12X lq_anf__d12Y n_aZS realWorld__0f vec_X4 vec_aZQ) (and (k_291 EQ_6U False_68 GT_6W LT_6S True_6u lq_anf__d130 a_a11j lq_anf__d12Z realWorld__0f) (and (k_395 EQ_6U False_68 GT_6W LT_6S True_6u vec_X4 n_aZS realWorld__0f vec_aZQ) (and (k_365 EQ_6U False_68 GT_6W LT_6S True_6u vec_aZQ realWorld__0f) (and (= (select cmp EQ_6U) EQ_6U) (and (not (select Prop False_68)) (and (= (select cmp GT_6W) GT_6W) (and (= (select cmp LT_6S) LT_6S) (and (select Prop True_6u) (and (= (select Prop lq_anf__d12X) (not (= i_aZU n_aZS))) (and (= (select Prop lq_anf__d12Y) (not (= i_aZU n_aZS))) (and (= lq_anf__d12Y lq_anf__d12X) (and (select Prop lq_anf__d12Y) (and (select Prop lq_anf__d12Y) (and (= lq_anf__d131 (+ acc_aZT lq_anf__d130)) (and (= lq_anf__d132 1) (and (= lq_anf__d133 (+ i_aZU lq_anf__d132)) (and (>= n_aZS 0) (and (= n_aZS (select vlen vec_X4)) (and (>= (select vlen vec_X4) 0) (and (>= (select vlen vec_aZQ) 0) (and (= VV_F86 (+ acc_aZT lq_anf__d130)) (and (= VV_F86 lq_anf__d131) true))))))))))))))))))))))))) (k_377 EQ_6U False_68 GT_6W LT_6S True_6u VV_F86 n_aZS realWorld__0f vec_X4 vec_aZQ)))
)


; cid = 85
(assert (forall ((EQ_6U Int) (False_68 Int) (GT_6W Int) 
(LT_6S Int) (Prop (Array Int Bool)) (True_6u Int) (VV_F85 Int) (a_a11j Int) 
(acc_aZT Int) (cmp (Array Int Int)) (i_aZU Int) (lq_anf__d12X Int) 
(lq_anf__d12Y Int) (lq_anf__d12Z Int) (lq_anf__d130 Int) (lq_anf__d131 Int) 
(lq_anf__d132 Int) (lq_anf__d133 Int) (n_aZS Int) (realWorld__0f Int) 
(vec_X4 Int) (vec_aZQ Int) 
(vlen (Array Int Int))) 
 (=> (and (k_399 EQ_6U False_68 GT_6W LT_6S True_6u acc_aZT n_aZS realWorld__0f vec_X4 vec_aZQ) (and (k_402 EQ_6U False_68 GT_6W LT_6S True_6u i_aZU acc_aZT n_aZS realWorld__0f vec_X4 vec_aZQ) (and (k_422 EQ_6U False_68 GT_6W LT_6S True_6u lq_anf__d12Z acc_aZT i_aZU lq_anf__d12X lq_anf__d12Y n_aZS realWorld__0f vec_X4 vec_aZQ) (and (k_291 EQ_6U False_68 GT_6W LT_6S True_6u lq_anf__d130 a_a11j lq_anf__d12Z realWorld__0f) (and (k_395 EQ_6U False_68 GT_6W LT_6S True_6u vec_X4 n_aZS realWorld__0f vec_aZQ) (and (k_365 EQ_6U False_68 GT_6W LT_6S True_6u vec_aZQ realWorld__0f) (and (= (select cmp EQ_6U) EQ_6U) (and (not (select Prop False_68)) (and (= (select cmp GT_6W) GT_6W) (and (= (select cmp LT_6S) LT_6S) (and (select Prop True_6u) (and (= (select Prop lq_anf__d12X) (not (= i_aZU n_aZS))) (and (= (select Prop lq_anf__d12Y) (not (= i_aZU n_aZS))) (and (= lq_anf__d12Y lq_anf__d12X) (and (select Prop lq_anf__d12Y) (and (select Prop lq_anf__d12Y) (and (= lq_anf__d131 (+ acc_aZT lq_anf__d130)) (and (= lq_anf__d132 1) (and (= lq_anf__d133 (+ i_aZU lq_anf__d132)) (and (>= n_aZS 0) (and (= n_aZS (select vlen vec_X4)) (and (>= (select vlen vec_X4) 0) (and (>= (select vlen vec_aZQ) 0) (and (= VV_F85 (+ i_aZU lq_anf__d132)) (and (= VV_F85 lq_anf__d133) true))))))))))))))))))))))))) (k_379 EQ_6U False_68 GT_6W LT_6S True_6u VV_F85 lq_anf__d131 n_aZS realWorld__0f vec_X4 vec_aZQ)))
)


; cid = 82
(assert (forall ((EQ_6U Int) (False_68 Int) (GT_6W Int) 
(LT_6S Int) (Prop (Array Int Bool)) (True_6u Int) (VV_F82 Int) (acc_aZT Int) 
(cmp (Array Int Int)) (n_aZS Int) (realWorld__0f Int) (vec_X4 Int) 
(vec_aZQ Int) 
(vlen (Array Int Int))) 
 (=> (and (k_377 EQ_6U False_68 GT_6W LT_6S True_6u acc_aZT n_aZS realWorld__0f vec_X4 vec_aZQ) (and (k_375 EQ_6U False_68 GT_6W LT_6S True_6u vec_X4 n_aZS realWorld__0f vec_aZQ) (and (k_365 EQ_6U False_68 GT_6W LT_6S True_6u vec_aZQ realWorld__0f) (and (= (select cmp EQ_6U) EQ_6U) (and (not (select Prop False_68)) (and (= (select cmp GT_6W) GT_6W) (and (= (select cmp LT_6S) LT_6S) (and (select Prop True_6u) (and (>= n_aZS 0) (and (= n_aZS (select vlen vec_aZQ)) (and (>= (select vlen vec_X4) 0) (and (>= (select vlen vec_aZQ) 0) (and (k_379 EQ_6U False_68 GT_6W LT_6S True_6u VV_F82 acc_aZT n_aZS realWorld__0f vec_X4 vec_aZQ) true))))))))))))) (k_402 EQ_6U False_68 GT_6W LT_6S True_6u VV_F82 acc_aZT n_aZS realWorld__0f vec_X4 vec_aZQ)))
)


; cid = 81
(assert (forall ((EQ_6U Int) (False_68 Int) (GT_6W Int) 
(LT_6S Int) (Prop (Array Int Bool)) (True_6u Int) (VV_F81 Int) 
(cmp (Array Int Int)) (n_aZS Int) (realWorld__0f Int) (vec_X4 Int) 
(vec_aZQ Int) 
(vlen (Array Int Int))) 
 (=> (and (k_375 EQ_6U False_68 GT_6W LT_6S True_6u vec_X4 n_aZS realWorld__0f vec_aZQ) (and (k_365 EQ_6U False_68 GT_6W LT_6S True_6u vec_aZQ realWorld__0f) (and (= (select cmp EQ_6U) EQ_6U) (and (not (select Prop False_68)) (and (= (select cmp GT_6W) GT_6W) (and (= (select cmp LT_6S) LT_6S) (and (select Prop True_6u) (and (>= n_aZS 0) (and (= n_aZS (select vlen vec_aZQ)) (and (>= (select vlen vec_X4) 0) (and (>= (select vlen vec_aZQ) 0) (and (k_377 EQ_6U False_68 GT_6W LT_6S True_6u VV_F81 n_aZS realWorld__0f vec_X4 vec_aZQ) true)))))))))))) (k_399 EQ_6U False_68 GT_6W LT_6S True_6u VV_F81 n_aZS realWorld__0f vec_X4 vec_aZQ)))
)


; cid = 80
(assert (forall ((EQ_6U Int) (False_68 Int) (GT_6W Int) 
(LT_6S Int) (Prop (Array Int Bool)) (True_6u Int) (VV_781 Int) (VV_F80 Int) 
(cmp (Array Int Int)) (n_aZS Int) (realWorld__0f Int) (vec_aZQ Int) 
(vlen (Array Int Int))) 
 (=> (and (k_375 EQ_6U False_68 GT_6W LT_6S True_6u VV_781 n_aZS realWorld__0f vec_aZQ) (and (k_365 EQ_6U False_68 GT_6W LT_6S True_6u vec_aZQ realWorld__0f) (and (= (select cmp EQ_6U) EQ_6U) (and (not (select Prop False_68)) (and (= (select cmp GT_6W) GT_6W) (and (= (select cmp LT_6S) LT_6S) (and (select Prop True_6u) (and (>= (select vlen VV_781) 0) (and (>= n_aZS 0) (and (= n_aZS (select vlen vec_aZQ)) (and (>= (select vlen vec_aZQ) 0) (and (k_373 EQ_6U False_68 GT_6W LT_6S True_6u VV_F80 VV_781 n_aZS realWorld__0f vec_aZQ) true)))))))))))) (k_393 EQ_6U False_68 GT_6W LT_6S True_6u VV_F80 VV_781 n_aZS realWorld__0f vec_aZQ)))
)


; cid = 79
(assert (forall ((EQ_6U Int) (False_68 Int) (GT_6W Int) 
(LT_6S Int) (Prop (Array Int Bool)) (True_6u Int) (VV_F79 Int) 
(cmp (Array Int Int)) (n_aZS Int) (realWorld__0f Int) (vec_aZQ Int) 
(vlen (Array Int Int))) 
 (=> (and (k_365 EQ_6U False_68 GT_6W LT_6S True_6u vec_aZQ realWorld__0f) (and (= (select cmp EQ_6U) EQ_6U) (and (not (select Prop False_68)) (and (= (select cmp GT_6W) GT_6W) (and (= (select cmp LT_6S) LT_6S) (and (select Prop True_6u) (and (>= n_aZS 0) (and (= n_aZS (select vlen vec_aZQ)) (and (>= (select vlen vec_aZQ) 0) (and (k_375 EQ_6U False_68 GT_6W LT_6S True_6u VV_F79 n_aZS realWorld__0f vec_aZQ) true)))))))))) (k_395 EQ_6U False_68 GT_6W LT_6S True_6u VV_F79 n_aZS realWorld__0f vec_aZQ)))
)


; cid = 78
(assert (forall ((EQ_6U Int) (False_68 Int) (GT_6W Int) 
(LT_6S Int) (Prop (Array Int Bool)) (True_6u Int) (VV_777 Int) (VV_F78 Int) 
(cmp (Array Int Int)) (n_aZS Int) (realWorld__0f Int) (vec_aZQ Int) 
(vlen (Array Int Int))) 
 (=> (and (k_365 EQ_6U False_68 GT_6W LT_6S True_6u VV_777 realWorld__0f) (and (k_365 EQ_6U False_68 GT_6W LT_6S True_6u vec_aZQ realWorld__0f) (and (= (select cmp EQ_6U) EQ_6U) (and (not (select Prop False_68)) (and (= (select cmp GT_6W) GT_6W) (and (= (select cmp LT_6S) LT_6S) (and (select Prop True_6u) (and (>= (select vlen VV_777) 0) (and (= VV_777 vec_aZQ) (and (>= (select vlen VV_777) 0) (and (>= n_aZS 0) (and (= n_aZS (select vlen vec_aZQ)) (and (>= (select vlen vec_aZQ) 0) (and (k_363 EQ_6U False_68 GT_6W LT_6S True_6u VV_F78 VV_777 realWorld__0f) true)))))))))))))) (k_373 EQ_6U False_68 GT_6W LT_6S True_6u VV_F78 VV_777 n_aZS realWorld__0f vec_aZQ)))
)


; cid = 77
(assert (forall ((EQ_6U Int) (False_68 Int) (GT_6W Int) 
(LT_6S Int) (Prop (Array Int Bool)) (True_6u Int) (VV_F77 Int) 
(cmp (Array Int Int)) (n_aZS Int) (realWorld__0f Int) (vec_aZQ Int) 
(vlen (Array Int Int))) 
 (=> (and (k_365 EQ_6U False_68 GT_6W LT_6S True_6u vec_aZQ realWorld__0f) (and (= (select cmp EQ_6U) EQ_6U) (and (not (select Prop False_68)) (and (= (select cmp GT_6W) GT_6W) (and (= (select cmp LT_6S) LT_6S) (and (select Prop True_6u) (and (>= n_aZS 0) (and (= n_aZS (select vlen vec_aZQ)) (and (>= (select vlen vec_aZQ) 0) (and (k_365 EQ_6U False_68 GT_6W LT_6S True_6u VV_F77 realWorld__0f) (and (>= (select vlen VV_F77) 0) (and (= VV_F77 vec_aZQ) true)))))))))))) (k_375 EQ_6U False_68 GT_6W LT_6S True_6u VV_F77 n_aZS realWorld__0f vec_aZQ)))
)


; cid = 75
(assert (forall ((EQ_6U Int) (False_68 Int) (GT_6W Int) 
(LT_6S Int) (Prop (Array Int Bool)) (True_6u Int) (VV_F75 Int) 
(cmp (Array Int Int)) (lq_tmp_x382 Int) (n_aZS Int) (realWorld__0f Int) 
(vec_aZQ Int) 
(vlen (Array Int Int))) 
 (=> (and (k_384 EQ_6U False_68 GT_6W LT_6S True_6u lq_tmp_x382 n_aZS realWorld__0f vec_aZQ) (and (k_365 EQ_6U False_68 GT_6W LT_6S True_6u vec_aZQ realWorld__0f) (and (= (select cmp EQ_6U) EQ_6U) (and (not (select Prop False_68)) (and (= (select cmp GT_6W) GT_6W) (and (= (select cmp LT_6S) LT_6S) (and (select Prop True_6u) (and (>= n_aZS 0) (and (= n_aZS (select vlen vec_aZQ)) (and (>= (select vlen vec_aZQ) 0) (and (k_387 EQ_6U False_68 GT_6W LT_6S True_6u VV_F75 lq_tmp_x382 n_aZS realWorld__0f vec_aZQ) true))))))))))) (k_379 EQ_6U False_68 GT_6W LT_6S True_6u VV_F75 lq_tmp_x382 n_aZS realWorld__0f vec_aZQ vec_aZQ)))
)


; cid = 74
(assert (forall ((EQ_6U Int) (False_68 Int) (GT_6W Int) 
(LT_6S Int) (Prop (Array Int Bool)) (True_6u Int) (VV_F74 Int) 
(cmp (Array Int Int)) (n_aZS Int) (realWorld__0f Int) (vec_aZQ Int) 
(vlen (Array Int Int))) 
 (=> (and (k_365 EQ_6U False_68 GT_6W LT_6S True_6u vec_aZQ realWorld__0f) (and (= (select cmp EQ_6U) EQ_6U) (and (not (select Prop False_68)) (and (= (select cmp GT_6W) GT_6W) (and (= (select cmp LT_6S) LT_6S) (and (select Prop True_6u) (and (>= n_aZS 0) (and (= n_aZS (select vlen vec_aZQ)) (and (>= (select vlen vec_aZQ) 0) (and (k_384 EQ_6U False_68 GT_6W LT_6S True_6u VV_F74 n_aZS realWorld__0f vec_aZQ) true)))))))))) (k_377 EQ_6U False_68 GT_6W LT_6S True_6u VV_F74 n_aZS realWorld__0f vec_aZQ vec_aZQ)))
)


; cid = 70
(assert (forall ((EQ_6U Int) (False_68 Int) (GT_6W Int) 
(LT_6S Int) (Prop (Array Int Bool)) (True_6u Int) (VV_F70 Int) 
(cmp (Array Int Int)) (go_X5 Int) (go_aZR Int) (lq_anf__d134 Int) 
(lq_anf__d135 Int) (lq_anf__d136 Int) (lq_anf__d137 Int) (lq_anf__d138 Int) 
(n_aZS Int) (realWorld__0f Int) (vec_aZQ Int) 
(vlen (Array Int Int))) 
 (=> (and (k_365 EQ_6U False_68 GT_6W LT_6S True_6u vec_aZQ realWorld__0f) (and (= (select cmp EQ_6U) EQ_6U) (and (not (select Prop False_68)) (and (= (select cmp GT_6W) GT_6W) (and (= (select cmp LT_6S) LT_6S) (and (select Prop True_6u) (and (= go_aZR go_X5) (and (= lq_anf__d134 0) (and (= (select Prop lq_anf__d135) (< lq_anf__d134 n_aZS)) (and (= (select Prop lq_anf__d136) (< lq_anf__d134 n_aZS)) (and (= lq_anf__d136 lq_anf__d135) (and (select Prop lq_anf__d136) (and (select Prop lq_anf__d136) (and (= lq_anf__d137 0) (and (= lq_anf__d138 0) (and (>= n_aZS 0) (and (= n_aZS (select vlen vec_aZQ)) (and (>= (select vlen vec_aZQ) 0) (and (= VV_F70 0) (and (= VV_F70 lq_anf__d137) true)))))))))))))))))))) (k_384 EQ_6U False_68 GT_6W LT_6S True_6u VV_F70 n_aZS realWorld__0f vec_aZQ)))
)


; cid = 69
(assert (forall ((EQ_6U Int) (False_68 Int) (GT_6W Int) 
(LT_6S Int) (Prop (Array Int Bool)) (True_6u Int) (VV_F69 Int) 
(cmp (Array Int Int)) (go_X5 Int) (go_aZR Int) (lq_anf__d134 Int) 
(lq_anf__d135 Int) (lq_anf__d136 Int) (lq_anf__d137 Int) (lq_anf__d138 Int) 
(n_aZS Int) (realWorld__0f Int) (vec_aZQ Int) 
(vlen (Array Int Int))) 
 (=> (and (k_365 EQ_6U False_68 GT_6W LT_6S True_6u vec_aZQ realWorld__0f) (and (= (select cmp EQ_6U) EQ_6U) (and (not (select Prop False_68)) (and (= (select cmp GT_6W) GT_6W) (and (= (select cmp LT_6S) LT_6S) (and (select Prop True_6u) (and (= go_aZR go_X5) (and (= lq_anf__d134 0) (and (= (select Prop lq_anf__d135) (< lq_anf__d134 n_aZS)) (and (= (select Prop lq_anf__d136) (< lq_anf__d134 n_aZS)) (and (= lq_anf__d136 lq_anf__d135) (and (select Prop lq_anf__d136) (and (select Prop lq_anf__d136) (and (= lq_anf__d137 0) (and (= lq_anf__d138 0) (and (>= n_aZS 0) (and (= n_aZS (select vlen vec_aZQ)) (and (>= (select vlen vec_aZQ) 0) (and (= VV_F69 0) (and (= VV_F69 lq_anf__d138) true)))))))))))))))))))) (k_387 EQ_6U False_68 GT_6W LT_6S True_6u VV_F69 lq_anf__d137 n_aZS realWorld__0f vec_aZQ)))
)


; cid = 66
(assert (forall ((EQ_6U Int) (False_68 Int) (GT_6W Int) 
(LT_6S Int) (Prop (Array Int Bool)) (True_6u Int) (VV_742 Int) (VV_F66 Int) 
(cmp (Array Int Int)) (realWorld__0f Int) 
(vlen (Array Int Int))) 
 (=> (and (= (select cmp EQ_6U) EQ_6U) (and (not (select Prop False_68)) (and (= (select cmp GT_6W) GT_6W) (and (= (select cmp LT_6S) LT_6S) (and (select Prop True_6u) (and (>= (select vlen VV_742) 0) true)))))) (k_363 EQ_6U False_68 GT_6W LT_6S True_6u VV_F66 VV_742 realWorld__0f)))
)


; cid = 65
(assert (forall ((EQ_6U Int) (False_68 Int) (GT_6W Int) 
(LT_6S Int) (Prop (Array Int Bool)) (True_6u Int) (VV_F65 Int) 
(cmp (Array Int Int)) 
(realWorld__0f Int)) 
 (=> (and (= (select cmp EQ_6U) EQ_6U) (and (not (select Prop False_68)) (and (= (select cmp GT_6W) GT_6W) (and (= (select cmp LT_6S) LT_6S) (and (select Prop True_6u) true))))) (k_365 EQ_6U False_68 GT_6W LT_6S True_6u VV_F65 realWorld__0f)))
)
